Quantum-Cryptanalysis/instances/samples/hf_n32/hf_n32_cnf07.sol
c DPLL-like Solver for max-min SAT
f file hf_n32_cnf07.cnf
p cnf 32 220
s max  220 -12 -9 11 10 -19 -27 -30 8 7 5 -6 -4 -2 -29 -3 -18 -15 -14 16 -13 -28 -23 -24 -20 1 -25 -17 -22 -32 -31 -26 -21
s min  192 -8 26 9 -11 10 -12 -31 -15 -32 16 13 14 -24 19 27 -20 -28 -23 -21 30 18 17 -22 -29 -25 1 2 3 -4 -5 6 7